set C := 1 2 3 4 5 6 7 8 9 10;

param q :=
    1 30.19
    2 37.09
    3 47.02
    4 20.51
    5 17.83
    6 35.64
    7 45.31
    8 13.09
    9 13.09
    10 40.90;
param ca :=
    1 236.85
    2 242.15
    3 228.72
    4 206.35
    5 231.33
    6 211.10
    7 168.33
    8 243.86
    9 178.32
    10 188.35;
param cc :=
    1 31.18
    2 43.81
    3 49.72
    4 47.50
    5 47.45
    6 39.60
    7 48.17
    8 42.93
    9 34.28
    10 45.29;
param cp :=
    1 8.56
    2 5.92
    3 10.62
    4 9.03
    5 7.00
    6 7.29
    7 8.45
    8 9.44
    9 6.09
    10 5.36;
param sMin := 0;
param sMax := 80;

namespace t0
{
    set A :=;
    set AAnt := 1 2;
    set P := 3 4 5 6 7 8 9 10;
    set S := 1;

    param p :=
        1 1.0000000000;
    param d :=
        1 32.53;
    param h := 1;
    param s0 := 20;
}

namespace t1
{
    set AAnt :=;
    set P := 3 4 5 6 7 8 9 10;
    set PAnt := 3 4 5 6 7 8 9 10;
    set S := 1 2 3;

    param p :=
        1 0.3656997143
        2 0.5227088307
        3 0.1115914550;
    param d :=
        1 29.37
        2 32.64
        3 28.11;
    param h := 1;
}

namespace t2
{
    set A2Ant :=;
    set P := 3 4 5 6 7 8 9 10;
    set PAnt := 3 4 5 6 7 8 9 10;
    set S := 1 2 3;

    param p :=
        1 0.5740059701
        2 0.1837494185
        3 0.2422446115;
    param d :=
        1 21.16
        2 31.71
        3 12.05;
    param h := 1;
}

namespace t3
{
    set P := 3 4 5 6 7 8 9 10;
    set PAnt := 3 4 5 6 7 8 9 10;
    set S := 1 2 3;

    param p :=
        1 0.0995841050
        2 0.1854029918
        3 0.7150129032;
    param d :=
        1 34.48
        2 12.91
        3 28.64;
    param h := 1;
}

namespace t4
{
    set P := 3 4 5 6 7 8 9 10;
    set PAnt := 3 4 5 6 7 8 9 10;
    set S := 1 2 3;

    param p :=
        1 0.4030541487
        2 0.3406495927
        3 0.2562962586;
    param d :=
        1 38.59
        2 10.48
        3 26.10;
    param h := 1;
}

namespace t5
{
    set PAnt := 3 4 5 6 7 8 9 10;
    set S := 1 2 3;

    param p :=
        1 0.3127888384
        2 0.2727177667
        3 0.4144933948;
    param d :=
        1 12.74
        2 30.14
        3 14.95;
    param h := 1;
}
